Version identifier: 22.1.0.0 | 2022-03-09 | 1a383f8ce
CPXPARAM_Read_DataCheck                          1
Tried aggregator 4 times.
MIP Presolve eliminated 5824 rows and 1254 columns.
MIP Presolve modified 147 coefficients.
Aggregator did 4808 substitutions.
Reduced MIP has 1261 rows, 5026 columns, and 11305 nonzeros.
Reduced MIP has 5012 binaries, 14 generals, 0 SOSs, and 0 indicators.
Presolve time = 0.04 sec. (41.50 ticks)
Probing fixed 24 vars, tightened 0 bounds.
Probing changed sense of 3 constraints.
Probing time = 0.01 sec. (2.56 ticks)
Tried aggregator 2 times.
Detecting symmetries...
MIP Presolve eliminated 23 rows and 30 columns.
Aggregator did 11 substitutions.
Reduced MIP has 1227 rows, 4985 columns, and 11168 nonzeros.
Reduced MIP has 4971 binaries, 14 generals, 0 SOSs, and 0 indicators.
Presolve time = 0.01 sec. (11.34 ticks)
Probing fixed 3 vars, tightened 0 bounds.
Probing time = 0.01 sec. (2.33 ticks)
Clique table members: 10342.
MIP emphasis: balance optimality and feasibility.
MIP search method: dynamic search.
Parallel mode: deterministic, using up to 8 threads.
Root relaxation solution time = 0.09 sec. (32.70 ticks)

        Nodes                                         Cuts/
   Node  Left     Objective  IInf  Best Integer    Best Bound    ItCnt     Gap

      0     0       14.4675   957                     14.4675     1140         
      0     0       24.0000   545                    Cuts: 49     1670         
      0     0       24.0000   631                    Cuts: 32     1983         
*     0+    0                           26.0000       24.0000             7.69%
      0     0       24.0000   380       26.0000   ZeroHalf: 2     2254    7.69%
*     0+    0                           25.0000       24.0000             4.00%
      0     0  -1.00000e+75     0       25.0000       24.0000     2254    4.00%
*     0+    0                           24.0000       24.0000             0.00%
      0     0        cutoff             24.0000       24.0000     2254    0.00%
Elapsed time = 1.65 sec. (1027.59 ticks, tree = 0.01 MB, solutions = 3)

Zero-half cuts applied:  9
Gomory fractional cuts applied:  10

Root node processing (before b&c):
  Real time             =    1.65 sec. (1028.13 ticks)
Parallel b&c, 8 threads:
  Real time             =    0.00 sec. (0.00 ticks)
  Sync time (average)   =    0.00 sec.
  Wait time (average)   =    0.00 sec.
                          ------------
Total (root+branch&cut) =    1.65 sec. (1028.13 ticks)
